9
15
0 15 15 15 15 15 15 15 15
0 1 3
1 0 3
0 2 3
2 0 3
0 3 5
3 0 5
0 4 3
4 0 3
0 5 6
5 0 6
0 6 3
6 0 3
0 7 10
7 0 10
0 8 13
8 0 13
1 2 6
2 1 6
1 3 9
3 1 9
1 4 5
4 1 5
1 5 7
5 1 7
1 6 6
6 1 6
1 7 5
7 1 5
1 8 7
8 1 7
2 3 2
3 2 2
2 4 13
4 2 13
2 5 5
5 2 5
2 6 8
6 2 8
2 7 10
7 2 10
2 8 3
8 2 3
3 4 5
4 3 5
3 5 4
5 3 4
3 6 10
6 3 10
3 7 13
7 3 13
3 8 10
8 3 10
4 5 8
5 4 8
4 6 8
6 4 8
4 7 9
7 4 9
4 8 9
8 4 9
5 6 7
6 5 7
5 7 11
7 5 11
5 8 3
8 5 3
6 7 12
7 6 12
6 8 3
8 6 3
7 8 4
8 7 4